NAME: random-60-19312
TYPE: TSP
COMMENT: size=60 seed=19312
DIMENSION: 122
EDGE_WEIGHT_TYPE: EUC_2D
NODE_COORD_SECTION
+0 784 308
-0 784 308
+1 824 348
-1 252 766
+2 630 858
-2 598 70
+3 95 555
-3 240 773
+4 257 692
-4 692 314
+5 422 214
-5 230 688
+6 93 224
-6 816 420
+7 241 493
-7 4 519
+8 748 652
-8 615 810
+9 49 759
-9 362 567
+10 514 839
-10 84 276
+11 766 699
-11 30 397
+12 426 115
-12 418 161
+13 519 605
-13 530 775
+14 123 407
-14 334 393
+15 174 71
-15 698 321
+16 974 403
-16 891 752
+17 95 768
-17 133 626
+18 23 447
-18 70 25
+19 372 583
-19 818 250
+20 938 941
-20 266 447
+21 55 261
-21 361 225
+22 965 456
-22 215 371
+23 194 120
-23 119 553
+24 566 747
-24 609 694
+25 40 572
-25 490 715
+26 448 463
-26 312 78
+27 41 26
-27 505 275
+28 70 553
-28 771 109
+29 309 612
-29 122 398
+30 341 390
-30 449 496
+31 447 940
-31 792 809
+32 901 740
-32 441 856
+33 343 598
-33 154 63
+34 290 841
-34 19 249
+35 868 122
-35 476 717
+36 309 62
-36 194 725
+37 277 74
-37 497 256
+38 489 49
-38 893 232
+39 959 801
-39 772 636
+40 834 472
-40 510 765
+41 347 117
-41 948 254
+42 33 427
-42 661 287
+43 596 852
-43 644 495
+44 711 585
-44 148 40
+45 870 806
-45 430 344
+46 216 188
-46 524 329
+47 366 312
-47 581 179
+48 2 644
-48 388 486
+49 420 739
-49 700 302
+50 793 73
-50 455 695
+51 871 491
-51 626 998
+52 669 99
-52 897 248
+53 194 996
-53 355 292
+54 535 956
-54 804 904
+55 703 530
-55 731 539
+56 585 994
-56 270 635
+57 581 718
-57 577 84
+58 240 872
-58 601 586
+59 170 69
-59 457 395
+60 279 283
-60 644 906
PRECEDENCE_SECTION
+0 -0
+1 -1
+2 -2
+3 -3
+4 -4
+5 -5
+6 -6
+7 -7
+8 -8
+9 -9
+10 -10
+11 -11
+12 -12
+13 -13
+14 -14
+15 -15
+16 -16
+17 -17
+18 -18
+19 -19
+20 -20
+21 -21
+22 -22
+23 -23
+24 -24
+25 -25
+26 -26
+27 -27
+28 -28
+29 -29
+30 -30
+31 -31
+32 -32
+33 -33
+34 -34
+35 -35
+36 -36
+37 -37
+38 -38
+39 -39
+40 -40
+41 -41
+42 -42
+43 -43
+44 -44
+45 -45
+46 -46
+47 -47
+48 -48
+49 -49
+50 -50
+51 -51
+52 -52
+53 -53
+54 -54
+55 -55
+56 -56
+57 -57
+58 -58
+59 -59
+60 -60
EOF
